predicate fzn_all_different_int(array [int] of var int: x);
predicate count(array [int] of var int: x, var int: y, var int: c);
predicate fixed_fzn_cumulative(array [int] of var int: s, array [int] of int: d, array [int] of int: r, int: b);
predicate global_cardinality(array [int] of var int: x, array [int] of int: cover, array [int] of var int: counts);
predicate maximum_int(var int: m, array [int] of var int: x);
predicate minimum_int(var int: m, array [int] of var int: x);
predicate sliding_sum(int: low, int: up, int: seq, array [int] of var int: vs);
predicate sort(array [int] of var int: x, array [int] of var int: y);
predicate table_bool(array [int] of var bool: x, array [int, int] of bool: t);
predicate table_int(array [int] of var int: x, array [int, int] of int: t);
predicate var_fzn_cumulative(array [int] of var int: s, array [int] of int: d, array [int] of int: r, var int: b);
array [1..5] of int: duration = [4, 6, 3, 5, 7];
array [1..15] of int: rehearsal = [1, 1, 0, 1, 0, 0, 1, 1, 0, 1, 1, 1, 0, 1, 1];
var bool: BOOL____00002 :: is_defined_var :: var_is_introduced;
var bool: BOOL____00004 :: is_defined_var :: var_is_introduced;
var bool: BOOL____00005 :: is_defined_var :: var_is_introduced;
var bool: BOOL____00007 :: is_defined_var :: var_is_introduced;
var bool: BOOL____00008 :: is_defined_var :: var_is_introduced;
var bool: BOOL____00010 :: is_defined_var :: var_is_introduced;
var bool: BOOL____00011 :: is_defined_var :: var_is_introduced;
var bool: BOOL____00013 :: is_defined_var :: var_is_introduced;
var bool: BOOL____00014 :: is_defined_var :: var_is_introduced;
var bool: BOOL____00016 :: is_defined_var :: var_is_introduced;
var bool: BOOL____00017 :: is_defined_var :: var_is_introduced;
var bool: BOOL____00018 :: is_defined_var :: var_is_introduced;
var bool: BOOL____00019 :: is_defined_var :: var_is_introduced;
var bool: BOOL____00020 :: is_defined_var :: var_is_introduced;
var bool: BOOL____00021 :: is_defined_var :: var_is_introduced;
var bool: BOOL____00023 :: is_defined_var :: var_is_introduced;
var bool: BOOL____00024 :: is_defined_var :: var_is_introduced;
var bool: BOOL____00028 :: is_defined_var :: var_is_introduced;
var bool: BOOL____00029 :: is_defined_var :: var_is_introduced;
var bool: BOOL____00030 :: is_defined_var :: var_is_introduced;
var bool: BOOL____00034 :: is_defined_var :: var_is_introduced;
var bool: BOOL____00035 :: is_defined_var :: var_is_introduced;
var bool: BOOL____00036 :: is_defined_var :: var_is_introduced;
var bool: BOOL____00040 :: is_defined_var :: var_is_introduced;
var bool: BOOL____00041 :: is_defined_var :: var_is_introduced;
var bool: BOOL____00042 :: is_defined_var :: var_is_introduced;
var bool: BOOL____00046 :: is_defined_var :: var_is_introduced;
var bool: BOOL____00047 :: is_defined_var :: var_is_introduced;
var bool: BOOL____00050 :: is_defined_var :: var_is_introduced;
var bool: BOOL____00053 :: is_defined_var :: var_is_introduced;
var bool: BOOL____00054 :: is_defined_var :: var_is_introduced;
var bool: BOOL____00057 :: is_defined_var :: var_is_introduced;
var bool: BOOL____00058 :: is_defined_var :: var_is_introduced;
var bool: BOOL____00061 :: is_defined_var :: var_is_introduced;
var bool: BOOL____00062 :: is_defined_var :: var_is_introduced;
var bool: BOOL____00065 :: is_defined_var :: var_is_introduced;
var bool: BOOL____00066 :: is_defined_var :: var_is_introduced;
var bool: BOOL____00069 :: is_defined_var :: var_is_introduced;
var bool: BOOL____00070 :: is_defined_var :: var_is_introduced;
var bool: BOOL____00071 :: is_defined_var :: var_is_introduced;
var bool: BOOL____00072 :: is_defined_var :: var_is_introduced;
var bool: BOOL____00073 :: is_defined_var :: var_is_introduced;
var bool: BOOL____00074 :: is_defined_var :: var_is_introduced;
var bool: BOOL____00075 :: is_defined_var :: var_is_introduced;
var bool: BOOL____00076 :: is_defined_var :: var_is_introduced;
var bool: BOOL____00079 :: is_defined_var :: var_is_introduced;
var bool: BOOL____00080 :: is_defined_var :: var_is_introduced;
var bool: BOOL____00081 :: is_defined_var :: var_is_introduced;
var bool: BOOL____00084 :: is_defined_var :: var_is_introduced;
var bool: BOOL____00085 :: is_defined_var :: var_is_introduced;
var bool: BOOL____00086 :: is_defined_var :: var_is_introduced;
var bool: BOOL____00089 :: is_defined_var :: var_is_introduced;
var bool: BOOL____00090 :: is_defined_var :: var_is_introduced;
var bool: BOOL____00091 :: is_defined_var :: var_is_introduced;
var bool: BOOL____00094 :: is_defined_var :: var_is_introduced;
var bool: BOOL____00095 :: is_defined_var :: var_is_introduced;
var bool: BOOL____00098 :: is_defined_var :: var_is_introduced;
var bool: BOOL____00101 :: is_defined_var :: var_is_introduced;
var bool: BOOL____00102 :: is_defined_var :: var_is_introduced;
var bool: BOOL____00105 :: is_defined_var :: var_is_introduced;
var bool: BOOL____00106 :: is_defined_var :: var_is_introduced;
var bool: BOOL____00109 :: is_defined_var :: var_is_introduced;
var bool: BOOL____00110 :: is_defined_var :: var_is_introduced;
var bool: BOOL____00113 :: is_defined_var :: var_is_introduced;
var bool: BOOL____00114 :: is_defined_var :: var_is_introduced;
var bool: BOOL____00117 :: is_defined_var :: var_is_introduced;
var bool: BOOL____00118 :: is_defined_var :: var_is_introduced;
var bool: BOOL____00119 :: is_defined_var :: var_is_introduced;
var bool: BOOL____00120 :: is_defined_var :: var_is_introduced;
var bool: BOOL____00121 :: is_defined_var :: var_is_introduced;
var bool: BOOL____00122 :: is_defined_var :: var_is_introduced;
var bool: BOOL____00123 :: is_defined_var :: var_is_introduced;
var bool: BOOL____00124 :: is_defined_var :: var_is_introduced;
var bool: BOOL____00127 :: is_defined_var :: var_is_introduced;
var bool: BOOL____00128 :: is_defined_var :: var_is_introduced;
var bool: BOOL____00129 :: is_defined_var :: var_is_introduced;
var bool: BOOL____00132 :: is_defined_var :: var_is_introduced;
var bool: BOOL____00133 :: is_defined_var :: var_is_introduced;
var bool: BOOL____00134 :: is_defined_var :: var_is_introduced;
var bool: BOOL____00137 :: is_defined_var :: var_is_introduced;
var bool: BOOL____00138 :: is_defined_var :: var_is_introduced;
var bool: BOOL____00139 :: is_defined_var :: var_is_introduced;
var bool: BOOL____00142 :: is_defined_var :: var_is_introduced;
var bool: BOOL____00143 :: is_defined_var :: var_is_introduced;
var 0..25: INT____00001 :: is_defined_var :: var_is_introduced;
var 0..1: INT____00003 :: is_defined_var :: var_is_introduced;
var 0..1: INT____00006 :: is_defined_var :: var_is_introduced;
var 0..1: INT____00009 :: is_defined_var :: var_is_introduced;
var 0..1: INT____00012 :: is_defined_var :: var_is_introduced;
var 0..1: INT____00015 :: is_defined_var :: var_is_introduced;
var 3..7: INT____00022 :: is_defined_var :: var_is_introduced;
var 0..1: INT____00025 :: is_defined_var :: var_is_introduced;
var 0..7: INT____00026 :: is_defined_var :: var_is_introduced;
var 3..7: INT____00027 :: is_defined_var :: var_is_introduced;
var 0..1: INT____00031 :: is_defined_var :: var_is_introduced;
var 0..7: INT____00032 :: is_defined_var :: var_is_introduced;
var 3..7: INT____00033 :: is_defined_var :: var_is_introduced;
var 0..1: INT____00037 :: is_defined_var :: var_is_introduced;
var 0..7: INT____00038 :: is_defined_var :: var_is_introduced;
var 3..7: INT____00039 :: is_defined_var :: var_is_introduced;
var 0..1: INT____00043 :: is_defined_var :: var_is_introduced;
var 0..7: INT____00044 :: is_defined_var :: var_is_introduced;
var 3..7: INT____00045 :: is_defined_var :: var_is_introduced;
var 0..1: INT____00048 :: is_defined_var :: var_is_introduced;
var 0..7: INT____00049 :: is_defined_var :: var_is_introduced;
var 6..10: INT____00051 :: is_defined_var :: var_is_introduced;
var 0..1: INT____00052 :: is_defined_var :: var_is_introduced;
var 6..10: INT____00055 :: is_defined_var :: var_is_introduced;
var 0..1: INT____00056 :: is_defined_var :: var_is_introduced;
var 6..10: INT____00059 :: is_defined_var :: var_is_introduced;
var 0..1: INT____00060 :: is_defined_var :: var_is_introduced;
var 6..10: INT____00063 :: is_defined_var :: var_is_introduced;
var 0..1: INT____00064 :: is_defined_var :: var_is_introduced;
var 6..10: INT____00067 :: is_defined_var :: var_is_introduced;
var 0..1: INT____00068 :: is_defined_var :: var_is_introduced;
var 0..1: INT____00077 :: is_defined_var :: var_is_introduced;
var 0..7: INT____00078 :: is_defined_var :: var_is_introduced;
var 0..1: INT____00082 :: is_defined_var :: var_is_introduced;
var 0..7: INT____00083 :: is_defined_var :: var_is_introduced;
var 0..1: INT____00087 :: is_defined_var :: var_is_introduced;
var 0..7: INT____00088 :: is_defined_var :: var_is_introduced;
var 0..1: INT____00092 :: is_defined_var :: var_is_introduced;
var 0..7: INT____00093 :: is_defined_var :: var_is_introduced;
var 0..1: INT____00096 :: is_defined_var :: var_is_introduced;
var 0..7: INT____00097 :: is_defined_var :: var_is_introduced;
var 11..15: INT____00099 :: is_defined_var :: var_is_introduced;
var 0..1: INT____00100 :: is_defined_var :: var_is_introduced;
var 11..15: INT____00103 :: is_defined_var :: var_is_introduced;
var 0..1: INT____00104 :: is_defined_var :: var_is_introduced;
var 11..15: INT____00107 :: is_defined_var :: var_is_introduced;
var 0..1: INT____00108 :: is_defined_var :: var_is_introduced;
var 11..15: INT____00111 :: is_defined_var :: var_is_introduced;
var 0..1: INT____00112 :: is_defined_var :: var_is_introduced;
var 11..15: INT____00115 :: is_defined_var :: var_is_introduced;
var 0..1: INT____00116 :: is_defined_var :: var_is_introduced;
var 0..1: INT____00125 :: is_defined_var :: var_is_introduced;
var 0..7: INT____00126 :: is_defined_var :: var_is_introduced;
var 0..1: INT____00130 :: is_defined_var :: var_is_introduced;
var 0..7: INT____00131 :: is_defined_var :: var_is_introduced;
var 0..1: INT____00135 :: is_defined_var :: var_is_introduced;
var 0..7: INT____00136 :: is_defined_var :: var_is_introduced;
var 0..1: INT____00140 :: is_defined_var :: var_is_introduced;
var 0..7: INT____00141 :: is_defined_var :: var_is_introduced;
var 0..1: INT____00144 :: is_defined_var :: var_is_introduced;
var 0..7: INT____00145 :: is_defined_var :: var_is_introduced;
array [1..3] of var 1..5: p_from;
array [1..3] of var 1..5: p_to;
array [1..5] of var 1..5: rehearsal_order :: output_array([1..5]);
var 0..25: total_waiting_time :: output_var = INT____00001;
array [1..3] of var 0..25: waiting_time :: output_array([1..3]);
constraint fzn_all_different_int(rehearsal_order) :: domain;
constraint array_bool_and([BOOL____00023, BOOL____00004], BOOL____00024) :: defines_var(BOOL____00024);
constraint array_bool_and([BOOL____00046, BOOL____00016], BOOL____00047) :: defines_var(BOOL____00047);
constraint array_bool_and([BOOL____00075, BOOL____00053], BOOL____00076) :: defines_var(BOOL____00076);
constraint array_bool_and([BOOL____00094, BOOL____00069], BOOL____00095) :: defines_var(BOOL____00095);
constraint array_bool_and([BOOL____00123, BOOL____00101], BOOL____00124) :: defines_var(BOOL____00124);
constraint array_bool_and([BOOL____00142, BOOL____00117], BOOL____00143) :: defines_var(BOOL____00143);
constraint array_bool_and([BOOL____00007, BOOL____00028, BOOL____00029], BOOL____00030) :: defines_var(BOOL____00030);
constraint array_bool_and([BOOL____00010, BOOL____00034, BOOL____00035], BOOL____00036) :: defines_var(BOOL____00036);
constraint array_bool_and([BOOL____00013, BOOL____00040, BOOL____00041], BOOL____00042) :: defines_var(BOOL____00042);
constraint array_bool_and([BOOL____00057, BOOL____00079, BOOL____00080], BOOL____00081) :: defines_var(BOOL____00081);
constraint array_bool_and([BOOL____00061, BOOL____00084, BOOL____00085], BOOL____00086) :: defines_var(BOOL____00086);
constraint array_bool_and([BOOL____00065, BOOL____00089, BOOL____00090], BOOL____00091) :: defines_var(BOOL____00091);
constraint array_bool_and([BOOL____00105, BOOL____00127, BOOL____00128], BOOL____00129) :: defines_var(BOOL____00129);
constraint array_bool_and([BOOL____00109, BOOL____00132, BOOL____00133], BOOL____00134) :: defines_var(BOOL____00134);
constraint array_bool_and([BOOL____00113, BOOL____00137, BOOL____00138], BOOL____00139) :: defines_var(BOOL____00139);
constraint array_int_element(INT____00051, rehearsal, INT____00052) :: defines_var(INT____00052);
constraint array_int_element(INT____00055, rehearsal, INT____00056) :: defines_var(INT____00056);
constraint array_int_element(INT____00059, rehearsal, INT____00060) :: defines_var(INT____00060);
constraint array_int_element(INT____00063, rehearsal, INT____00064) :: defines_var(INT____00064);
constraint array_int_element(INT____00067, rehearsal, INT____00068) :: defines_var(INT____00068);
constraint array_int_element(INT____00099, rehearsal, INT____00100) :: defines_var(INT____00100);
constraint array_int_element(INT____00103, rehearsal, INT____00104) :: defines_var(INT____00104);
constraint array_int_element(INT____00107, rehearsal, INT____00108) :: defines_var(INT____00108);
constraint array_int_element(INT____00111, rehearsal, INT____00112) :: defines_var(INT____00112);
constraint array_int_element(INT____00115, rehearsal, INT____00116) :: defines_var(INT____00116);
constraint array_int_element(rehearsal_order[1], duration, INT____00022) :: defines_var(INT____00022);
constraint array_int_element(rehearsal_order[1], rehearsal, INT____00003) :: defines_var(INT____00003);
constraint array_int_element(rehearsal_order[2], duration, INT____00027) :: defines_var(INT____00027);
constraint array_int_element(rehearsal_order[2], rehearsal, INT____00006) :: defines_var(INT____00006);
constraint array_int_element(rehearsal_order[3], duration, INT____00033) :: defines_var(INT____00033);
constraint array_int_element(rehearsal_order[3], rehearsal, INT____00009) :: defines_var(INT____00009);
constraint array_int_element(rehearsal_order[4], duration, INT____00039) :: defines_var(INT____00039);
constraint array_int_element(rehearsal_order[4], rehearsal, INT____00012) :: defines_var(INT____00012);
constraint array_int_element(rehearsal_order[5], duration, INT____00045) :: defines_var(INT____00045);
constraint array_int_element(rehearsal_order[5], rehearsal, INT____00015) :: defines_var(INT____00015);
constraint bool2int(BOOL____00024, INT____00025) :: defines_var(INT____00025);
constraint bool2int(BOOL____00030, INT____00031) :: defines_var(INT____00031);
constraint bool2int(BOOL____00036, INT____00037) :: defines_var(INT____00037);
constraint bool2int(BOOL____00042, INT____00043) :: defines_var(INT____00043);
constraint bool2int(BOOL____00047, INT____00048) :: defines_var(INT____00048);
constraint bool2int(BOOL____00076, INT____00077) :: defines_var(INT____00077);
constraint bool2int(BOOL____00081, INT____00082) :: defines_var(INT____00082);
constraint bool2int(BOOL____00086, INT____00087) :: defines_var(INT____00087);
constraint bool2int(BOOL____00091, INT____00092) :: defines_var(INT____00092);
constraint bool2int(BOOL____00095, INT____00096) :: defines_var(INT____00096);
constraint bool2int(BOOL____00124, INT____00125) :: defines_var(INT____00125);
constraint bool2int(BOOL____00129, INT____00130) :: defines_var(INT____00130);
constraint bool2int(BOOL____00134, INT____00135) :: defines_var(INT____00135);
constraint bool2int(BOOL____00139, INT____00140) :: defines_var(INT____00140);
constraint bool2int(BOOL____00143, INT____00144) :: defines_var(INT____00144);
constraint bool_le(BOOL____00002, BOOL____00004);
constraint bool_le(BOOL____00005, BOOL____00007);
constraint bool_le(BOOL____00008, BOOL____00010);
constraint bool_le(BOOL____00011, BOOL____00013);
constraint bool_le(BOOL____00014, BOOL____00016);
constraint bool_le(BOOL____00017, BOOL____00004);
constraint bool_le(BOOL____00018, BOOL____00007);
constraint bool_le(BOOL____00019, BOOL____00010);
constraint bool_le(BOOL____00020, BOOL____00013);
constraint bool_le(BOOL____00021, BOOL____00016);
constraint bool_le(BOOL____00050, BOOL____00053);
constraint bool_le(BOOL____00054, BOOL____00057);
constraint bool_le(BOOL____00058, BOOL____00061);
constraint bool_le(BOOL____00062, BOOL____00065);
constraint bool_le(BOOL____00066, BOOL____00069);
constraint bool_le(BOOL____00070, BOOL____00053);
constraint bool_le(BOOL____00071, BOOL____00057);
constraint bool_le(BOOL____00072, BOOL____00061);
constraint bool_le(BOOL____00073, BOOL____00065);
constraint bool_le(BOOL____00074, BOOL____00069);
constraint bool_le(BOOL____00098, BOOL____00101);
constraint bool_le(BOOL____00102, BOOL____00105);
constraint bool_le(BOOL____00106, BOOL____00109);
constraint bool_le(BOOL____00110, BOOL____00113);
constraint bool_le(BOOL____00114, BOOL____00117);
constraint bool_le(BOOL____00118, BOOL____00101);
constraint bool_le(BOOL____00119, BOOL____00105);
constraint bool_le(BOOL____00120, BOOL____00109);
constraint bool_le(BOOL____00121, BOOL____00113);
constraint bool_le(BOOL____00122, BOOL____00117);
constraint int_eq_reif(INT____00003, 0, BOOL____00004) :: defines_var(BOOL____00004);
constraint int_eq_reif(INT____00006, 0, BOOL____00007) :: defines_var(BOOL____00007);
constraint int_eq_reif(INT____00009, 0, BOOL____00010) :: defines_var(BOOL____00010);
constraint int_eq_reif(INT____00012, 0, BOOL____00013) :: defines_var(BOOL____00013);
constraint int_eq_reif(INT____00015, 0, BOOL____00016) :: defines_var(BOOL____00016);
constraint int_eq_reif(INT____00052, 0, BOOL____00053) :: defines_var(BOOL____00053);
constraint int_eq_reif(INT____00056, 0, BOOL____00057) :: defines_var(BOOL____00057);
constraint int_eq_reif(INT____00060, 0, BOOL____00061) :: defines_var(BOOL____00061);
constraint int_eq_reif(INT____00064, 0, BOOL____00065) :: defines_var(BOOL____00065);
constraint int_eq_reif(INT____00068, 0, BOOL____00069) :: defines_var(BOOL____00069);
constraint int_eq_reif(INT____00100, 0, BOOL____00101) :: defines_var(BOOL____00101);
constraint int_eq_reif(INT____00104, 0, BOOL____00105) :: defines_var(BOOL____00105);
constraint int_eq_reif(INT____00108, 0, BOOL____00109) :: defines_var(BOOL____00109);
constraint int_eq_reif(INT____00112, 0, BOOL____00113) :: defines_var(BOOL____00113);
constraint int_eq_reif(INT____00116, 0, BOOL____00117) :: defines_var(BOOL____00117);
constraint int_le_reif(2, p_to[1], BOOL____00029) :: defines_var(BOOL____00029);
constraint int_le_reif(2, p_to[2], BOOL____00080) :: defines_var(BOOL____00080);
constraint int_le_reif(2, p_to[3], BOOL____00128) :: defines_var(BOOL____00128);
constraint int_le_reif(3, p_to[1], BOOL____00035) :: defines_var(BOOL____00035);
constraint int_le_reif(3, p_to[2], BOOL____00085) :: defines_var(BOOL____00085);
constraint int_le_reif(3, p_to[3], BOOL____00133) :: defines_var(BOOL____00133);
constraint int_le_reif(4, p_to[1], BOOL____00041) :: defines_var(BOOL____00041);
constraint int_le_reif(4, p_to[2], BOOL____00090) :: defines_var(BOOL____00090);
constraint int_le_reif(4, p_to[3], BOOL____00138) :: defines_var(BOOL____00138);
constraint int_le_reif(5, p_to[1], BOOL____00046) :: defines_var(BOOL____00046);
constraint int_le_reif(5, p_to[2], BOOL____00094) :: defines_var(BOOL____00094);
constraint int_le_reif(5, p_to[3], BOOL____00142) :: defines_var(BOOL____00142);
constraint int_le_reif(p_from[1], 1, BOOL____00023) :: defines_var(BOOL____00023);
constraint int_le_reif(p_from[1], 2, BOOL____00028) :: defines_var(BOOL____00028);
constraint int_le_reif(p_from[1], 3, BOOL____00034) :: defines_var(BOOL____00034);
constraint int_le_reif(p_from[1], 4, BOOL____00040) :: defines_var(BOOL____00040);
constraint int_le_reif(p_from[2], 1, BOOL____00075) :: defines_var(BOOL____00075);
constraint int_le_reif(p_from[2], 2, BOOL____00079) :: defines_var(BOOL____00079);
constraint int_le_reif(p_from[2], 3, BOOL____00084) :: defines_var(BOOL____00084);
constraint int_le_reif(p_from[2], 4, BOOL____00089) :: defines_var(BOOL____00089);
constraint int_le_reif(p_from[3], 1, BOOL____00123) :: defines_var(BOOL____00123);
constraint int_le_reif(p_from[3], 2, BOOL____00127) :: defines_var(BOOL____00127);
constraint int_le_reif(p_from[3], 3, BOOL____00132) :: defines_var(BOOL____00132);
constraint int_le_reif(p_from[3], 4, BOOL____00137) :: defines_var(BOOL____00137);
constraint int_lin_eq([-1, 1], [INT____00051, rehearsal_order[1]], -5) :: defines_var(INT____00051) :: domain;
constraint int_lin_eq([-1, 1], [INT____00055, rehearsal_order[2]], -5) :: defines_var(INT____00055) :: domain;
constraint int_lin_eq([-1, 1], [INT____00059, rehearsal_order[3]], -5) :: defines_var(INT____00059) :: domain;
constraint int_lin_eq([-1, 1], [INT____00063, rehearsal_order[4]], -5) :: defines_var(INT____00063) :: domain;
constraint int_lin_eq([-1, 1], [INT____00067, rehearsal_order[5]], -5) :: defines_var(INT____00067) :: domain;
constraint int_lin_eq([-1, 1], [INT____00099, rehearsal_order[1]], -10) :: defines_var(INT____00099) :: domain;
constraint int_lin_eq([-1, 1], [INT____00103, rehearsal_order[2]], -10) :: defines_var(INT____00103) :: domain;
constraint int_lin_eq([-1, 1], [INT____00107, rehearsal_order[3]], -10) :: defines_var(INT____00107) :: domain;
constraint int_lin_eq([-1, 1], [INT____00111, rehearsal_order[4]], -10) :: defines_var(INT____00111) :: domain;
constraint int_lin_eq([-1, 1], [INT____00115, rehearsal_order[5]], -10) :: defines_var(INT____00115) :: domain;
constraint int_lin_eq([-1, 1, 1, 1], [INT____00001, waiting_time[1], waiting_time[2], waiting_time[3]], 0) :: defines_var(INT____00001);
constraint int_lin_eq([-1, -1, -1, -1, -1, 1], [INT____00026, INT____00032, INT____00038, INT____00044, INT____00049, waiting_time[1]], 0);
constraint int_lin_eq([-1, -1, -1, -1, -1, 1], [INT____00078, INT____00083, INT____00088, INT____00093, INT____00097, waiting_time[2]], 0);
constraint int_lin_eq([-1, -1, -1, -1, -1, 1], [INT____00126, INT____00131, INT____00136, INT____00141, INT____00145, waiting_time[3]], 0);
constraint int_lt(p_from[1], p_to[1]);
constraint int_lt(p_from[2], p_to[2]);
constraint int_lt(p_from[3], p_to[3]);
constraint int_lt(rehearsal_order[1], rehearsal_order[5]);
constraint int_lt_reif(1, p_from[1], BOOL____00002) :: defines_var(BOOL____00002);
constraint int_lt_reif(1, p_from[2], BOOL____00050) :: defines_var(BOOL____00050);
constraint int_lt_reif(1, p_from[3], BOOL____00098) :: defines_var(BOOL____00098);
constraint int_lt_reif(2, p_from[1], BOOL____00005) :: defines_var(BOOL____00005);
constraint int_lt_reif(2, p_from[2], BOOL____00054) :: defines_var(BOOL____00054);
constraint int_lt_reif(2, p_from[3], BOOL____00102) :: defines_var(BOOL____00102);
constraint int_lt_reif(3, p_from[1], BOOL____00008) :: defines_var(BOOL____00008);
constraint int_lt_reif(3, p_from[2], BOOL____00058) :: defines_var(BOOL____00058);
constraint int_lt_reif(3, p_from[3], BOOL____00106) :: defines_var(BOOL____00106);
constraint int_lt_reif(4, p_from[1], BOOL____00011) :: defines_var(BOOL____00011);
constraint int_lt_reif(4, p_from[2], BOOL____00062) :: defines_var(BOOL____00062);
constraint int_lt_reif(4, p_from[3], BOOL____00110) :: defines_var(BOOL____00110);
constraint int_lt_reif(5, p_from[1], BOOL____00014) :: defines_var(BOOL____00014);
constraint int_lt_reif(5, p_from[2], BOOL____00066) :: defines_var(BOOL____00066);
constraint int_lt_reif(5, p_from[3], BOOL____00114) :: defines_var(BOOL____00114);
constraint int_lt_reif(p_to[1], 1, BOOL____00017) :: defines_var(BOOL____00017);
constraint int_lt_reif(p_to[1], 2, BOOL____00018) :: defines_var(BOOL____00018);
constraint int_lt_reif(p_to[1], 3, BOOL____00019) :: defines_var(BOOL____00019);
constraint int_lt_reif(p_to[1], 4, BOOL____00020) :: defines_var(BOOL____00020);
constraint int_lt_reif(p_to[1], 5, BOOL____00021) :: defines_var(BOOL____00021);
constraint int_lt_reif(p_to[2], 1, BOOL____00070) :: defines_var(BOOL____00070);
constraint int_lt_reif(p_to[2], 2, BOOL____00071) :: defines_var(BOOL____00071);
constraint int_lt_reif(p_to[2], 3, BOOL____00072) :: defines_var(BOOL____00072);
constraint int_lt_reif(p_to[2], 4, BOOL____00073) :: defines_var(BOOL____00073);
constraint int_lt_reif(p_to[2], 5, BOOL____00074) :: defines_var(BOOL____00074);
constraint int_lt_reif(p_to[3], 1, BOOL____00118) :: defines_var(BOOL____00118);
constraint int_lt_reif(p_to[3], 2, BOOL____00119) :: defines_var(BOOL____00119);
constraint int_lt_reif(p_to[3], 3, BOOL____00120) :: defines_var(BOOL____00120);
constraint int_lt_reif(p_to[3], 4, BOOL____00121) :: defines_var(BOOL____00121);
constraint int_lt_reif(p_to[3], 5, BOOL____00122) :: defines_var(BOOL____00122);
constraint int_times(INT____00022, INT____00025, INT____00026) :: defines_var(INT____00026);
constraint int_times(INT____00022, INT____00077, INT____00078) :: defines_var(INT____00078);
constraint int_times(INT____00022, INT____00125, INT____00126) :: defines_var(INT____00126);
constraint int_times(INT____00027, INT____00031, INT____00032) :: defines_var(INT____00032);
constraint int_times(INT____00027, INT____00082, INT____00083) :: defines_var(INT____00083);
constraint int_times(INT____00027, INT____00130, INT____00131) :: defines_var(INT____00131);
constraint int_times(INT____00033, INT____00037, INT____00038) :: defines_var(INT____00038);
constraint int_times(INT____00033, INT____00087, INT____00088) :: defines_var(INT____00088);
constraint int_times(INT____00033, INT____00135, INT____00136) :: defines_var(INT____00136);
constraint int_times(INT____00039, INT____00043, INT____00044) :: defines_var(INT____00044);
constraint int_times(INT____00039, INT____00092, INT____00093) :: defines_var(INT____00093);
constraint int_times(INT____00039, INT____00140, INT____00141) :: defines_var(INT____00141);
constraint int_times(INT____00045, INT____00048, INT____00049) :: defines_var(INT____00049);
constraint int_times(INT____00045, INT____00096, INT____00097) :: defines_var(INT____00097);
constraint int_times(INT____00045, INT____00144, INT____00145) :: defines_var(INT____00145);
solve  :: int_search(rehearsal_order, first_fail, indomain_max, complete) minimize INT____00001;
